(set-logic HORN)
(declare-fun inv ((_ BitVec 32) (_ BitVec 32) (_ BitVec 32) (_ BitVec 32) ) Bool)
(assert (forall ((n (_ BitVec 32)) (i (_ BitVec 32)) (k (_ BitVec 32)) (j (_ BitVec 32))) 
       (=> ( and ( = i (_ bv0 32) ) ( = k (_ bv0 32) ) ( = j (_ bv0 32) ) ) (inv n i k j))))
(assert (forall ((n (_ BitVec 32)) (i (_ BitVec 32)) (k (_ BitVec 32)) (j (_ BitVec 32)) (n! (_ BitVec 32)) (i! (_ BitVec 32)) (k! (_ BitVec 32)) (j! (_ BitVec 32))) 
       (=> (and (inv n i k j) ( or ( and ( bvslt i n ) ( = i! ( bvadd i (_ bv1 32) ) ) ( = k! ( bvadd k (_ bv1 32) ) ) ( = n! n ) ( = j! j ) ) ( and ( bvsge i n ) ( bvslt j n ) ( = j! ( bvadd j (_ bv1 32) ) ) ( = k! ( bvsub k (_ bv1 32) ) ) ( = n! n ) ( = i! i ) ) )) (inv n! i! k! j!))))
(assert (forall ((n (_ BitVec 32)) (i (_ BitVec 32)) (k (_ BitVec 32)) (j (_ BitVec 32))) 
       (=> (inv n i k j) ( or ( not ( and ( bvsge i n ) ( bvslt j n ) ) ) ( bvsgt k (_ bv0 32) ) ))))
(check-sat)
